93 90 87 86 85 84 51 50 52 54 53 55 56 83 82 57 58 59 60 61 63 62 64 76 75 73 74 77 78 79 80 81 88 89 94 95 96 97 98 99 552 553 554 556 557 558 559 550 551 101 100 102 103 104 105 106 118 119 120 121 117 122 123 71 72 65 66 67 68 70 69 124 125 126 127 128 116 115 114 112 113 161 160 155 156 159 157 158 136 135 134 133 132 131 130 129 137 138 139 140 141 142 143 144 145 146 151 150 149 152 148 147 153 154 162 168 163 167 166 164 165 201 200 199 198 202 204 203 208 207 206 205 209 210 211 212 213 214 215 216 217 223 224 222 221 220 218 219 193 194 195 196 197 184 185 183 182 179 181 180 169 171 170 172 175 174 173 108 109 111 110 107 542 541 543 544 547 546 545 548 549 560 561 562 563 564 565 566 567 568 569 570 474 473 475 476 477 478 479 480 481 482 483 485 484 536 537 539 538 540 176 177 178 187 188 186 192 191 190 226 225 189 227 228 229 230 231 533 534 535 487 486 488 489 532 531 530 233 232 234 235 236 237 240 239 238 246 247 245 244 243 242 241 248 249 250 251 252 254 253 255 256 257 260 261 259 258 262 263 264 265 266 298 299 300 301 302 303 304 306 305 318 317 319 320 321 297 296 295 294 293 270 269 268 267 271 272 273 274 275 292 291 290 289 288 276 277 278 279 282 281 280 287 286 285 284 283 334 335 336 337 338 339 333 332 331 330 340 341 342 343 344 345 346 364 363 362 361 360 359 358 349 348 347 350 351 352 353 354 355 357 356 412 411 410 418 417 413 414 415 416 419 420 421 422 423 424 425 426 427 428 429 430 437 438 436 435 434 433 432 431 381 380 379 378 377 376 393 391 392 390 389 388 387 408 385 386 382 383 384 409 405 404 403 402 401 400 406 407 399 398 397 394 395 396 371 372 370 369 368 365 367 366 329 328 327 326 325 324 323 322 373 374 375 315 314 316 313 309 310 311 312 451 450 448 447 446 445 444 443 442 449 441 440 439 454 455 456 457 458 459 460 463 462 461 452 453 499 500 501 502 503 504 505 308 307 508 507 506 509 510 511 512 513 514 515 516 517 520 521 522 523 526 527 528 529 490 491 492 493 525 524 494 472 471 470 495 518 519 498 497 496 464 465 469 468 467 466 571 572 573 0 1 2 3 4 5 6 7 8 9 10 11 14 15 16 17 18 19 20 13 12 23 22 21 24 25 26 27 28 29 31 30 32 33 34 35 36 37 38 40 41 39 42 43 44 47 48 49 46 45 555 91 92